
Starting CP-SAT solver v9.15.6755
Parameters: random_seed: 2026073248 max_time_in_seconds: 13027.533209824 log_search_progress: true cp_model_presolve: true linearization_level: 2 num_search_workers: 4 cp_model_probing_level: 2 symmetry_level: 2

Initial satisfaction model '': (model_fingerprint: 0x5a500038ebbc7365)
#Variables: 724 (608 primary variables)
  - 724 Booleans in [0,1]
#kBoolAnd: 110 (#enforced: 110) (#literals: 330)
#kBoolOr: 110 (#enforced: 110) (#literals: 220)
#kExactlyOne: 87 (#literals: 261)
#kLinear1: 32 (#enforced: 6)
#kLinear2: 336 (#enforced: 336) (#complex_domain: 110)
#kLinear3: 1'600 (#enforced: 6)
#kLinearN: 1'132 (#enforced: 243) (#terms: 9'111)

Starting presolve at 0.00s
  7.11e-04s  0.00e+00d  [DetectDominanceRelations] 
  9.03e-03s  0.00e+00d  [PresolveToFixPoint] #num_loops=3 #num_dual_strengthening=1 
  3.75e-05s  0.00e+00d  [ExtractEncodingFromLinear] #potential_supersets=82 
  3.00e-04s  0.00e+00d  [DetectDuplicateColumns] 
  1.01e-04s  0.00e+00d  [DetectDuplicateConstraints] #duplicates=5 
[Symmetry] Graph for symmetry has 4'869 nodes and 15'720 arcs.
[Symmetry] Symmetry computation done. time: 0.00130808 dtime: 0.00181442
[SAT presolve] num removable Booleans: 220 / 626
[SAT presolve] num trivial clauses: 0
[SAT presolve] [0s] clauses:2'738 literals:7'444 vars:506 one_side_vars:66 simple_definition:1 singleton_clauses:0
[SAT presolve] [0.000238602s] clauses:2'737 literals:7'437 vars:506 one_side_vars:66 simple_definition:1 singleton_clauses:0
[SAT presolve] [0.000621255s] clauses:2'416 literals:6'932 vars:389 one_side_vars:68 simple_definition:24 singleton_clauses:0
  1.26e-04s  0.00e+00d  [DetectDuplicateConstraintsWithDifferentEnforcements] #without_enforcements=2 
  5.89e-03s  2.75e-03d  [Probe] #probed=1'316 #equiv=3 #new_binary_clauses=1'441 
  6.54e-04s  6.13e-04d  [MaxClique] Merged 655 constraints with 1'437 literals into 549 constraints with 1'279 literals
  9.59e-04s  0.00e+00d  [DetectDominanceRelations] 
  3.29e-03s  0.00e+00d  [PresolveToFixPoint] #num_loops=1 #num_dual_strengthening=1 
  1.31e-03s  0.00e+00d  [ProcessAtMostOneAndLinear] 
  1.05e-04s  0.00e+00d  [DetectDuplicateConstraints] 
  8.80e-05s  0.00e+00d  [DetectDuplicateConstraintsWithDifferentEnforcements] 
  6.74e-03s  1.53e-04d  [DetectDominatedLinearConstraints] #relevant_constraints=842 #num_inclusions=725 #num_redundant=7 
  1.38e-04s  0.00e+00d  [DetectDifferentVariables] 
  8.56e-04s  9.12e-05d  [ProcessSetPPC] #relevant_constraints=3'208 #num_inclusions=227 
  3.10e-04s  3.45e-05d  [TransformClausesToExactlyOne] #num_amos=612 #num_clauses=1'764 #num_checked=1'764 
  5.15e-05s  0.00e+00d  [DetectEncodedComplexDomains] 
  2.96e-05s  0.00e+00d  [FindAlmostIdenticalLinearConstraints] 
  1.05e-03s  1.52e-03d  [FindBigAtMostOneAndLinearOverlap] 
  1.55e-03s  1.06e-03d  [FindBigVerticalLinearOverlap] #blocks=10 #saved_nz=394 
  1.81e-04s  2.72e-04d  [FindBigHorizontalLinearOverlap] #linears=464 
  3.52e-04s  2.79e-05d  [MergeClauses] #num_collisions=7 #num_merges=7 #num_saved_literals=29 
  9.69e-04s  0.00e+00d  [DetectDominanceRelations] 
  3.45e-03s  0.00e+00d  [PresolveToFixPoint] #num_loops=2 #num_dual_strengthening=1 
  9.55e-04s  0.00e+00d  [DetectDominanceRelations] 
  3.19e-03s  0.00e+00d  [PresolveToFixPoint] #num_loops=1 #num_dual_strengthening=1 
  1.75e-04s  0.00e+00d  [DetectDuplicateColumns] 
  9.57e-05s  0.00e+00d  [DetectDuplicateConstraints] 
[Symmetry] Graph for symmetry has 4'658 nodes and 14'324 arcs.
[Symmetry] Symmetry computation done. time: 0.0011185 dtime: 0.00147009
[SAT presolve] num removable Booleans: 102 / 515
[SAT presolve] num trivial clauses: 0
[SAT presolve] [0s] clauses:2'339 literals:6'751 vars:488 one_side_vars:161 simple_definition:37 singleton_clauses:0
[SAT presolve] [0.000246793s] clauses:2'336 literals:6'579 vars:488 one_side_vars:173 simple_definition:88 singleton_clauses:0
[SAT presolve] [0.00039436s] clauses:2'205 literals:6'275 vars:483 one_side_vars:198 simple_definition:68 singleton_clauses:0
  1.53e-04s  0.00e+00d  [DetectDuplicateConstraintsWithDifferentEnforcements] 
  6.24e-03s  2.23e-03d  [Probe] #probed=1'334 #new_binary_clauses=1'427 
  5.46e-04s  5.67e-04d  [MaxClique] Merged 550 constraints with 1'232 literals into 541 constraints with 1'226 literals
  9.44e-04s  0.00e+00d  [DetectDominanceRelations] 
  3.23e-03s  0.00e+00d  [PresolveToFixPoint] #num_loops=1 #num_dual_strengthening=1 
  1.25e-03s  0.00e+00d  [ProcessAtMostOneAndLinear] 
  1.15e-04s  0.00e+00d  [DetectDuplicateConstraints] 
  8.98e-05s  0.00e+00d  [DetectDuplicateConstraintsWithDifferentEnforcements] 
  6.57e-04s  5.36e-05d  [DetectDominatedLinearConstraints] #relevant_constraints=836 #num_inclusions=304 
  1.46e-04s  0.00e+00d  [DetectDifferentVariables] 
  7.95e-04s  7.35e-05d  [ProcessSetPPC] #relevant_constraints=3'152 #num_inclusions=100 
  3.33e-04s  3.32e-05d  [TransformClausesToExactlyOne] #num_amos=541 #num_clauses=1'723 #num_checked=1'723 
  1.57e-04s  0.00e+00d  [DetectEncodedComplexDomains] 
  3.72e-05s  0.00e+00d  [FindAlmostIdenticalLinearConstraints] 
  8.83e-04s  1.06e-03d  [FindBigAtMostOneAndLinearOverlap] 
  1.29e-03s  9.03e-04d  [FindBigVerticalLinearOverlap] #blocks=1 #saved_nz=30 
  1.90e-04s  2.72e-04d  [FindBigHorizontalLinearOverlap] #linears=465 
  3.60e-04s  2.65e-05d  [MergeClauses] #num_collisions=75 #num_merges=75 #num_saved_literals=191 
  9.66e-04s  0.00e+00d  [DetectDominanceRelations] 
  3.33e-03s  0.00e+00d  [PresolveToFixPoint] #num_loops=2 #num_dual_strengthening=1 
  9.51e-04s  0.00e+00d  [DetectDominanceRelations] 
  3.20e-03s  0.00e+00d  [PresolveToFixPoint] #num_loops=1 #num_dual_strengthening=1 
  1.92e-04s  0.00e+00d  [DetectDuplicateColumns] 
  9.17e-05s  0.00e+00d  [DetectDuplicateConstraints] 
[Symmetry] Graph for symmetry has 4'455 nodes and 13'556 arcs.
[Symmetry] Symmetry computation done. time: 0.00108191 dtime: 0.00137233
[SAT presolve] num removable Booleans: 97 / 510
[SAT presolve] num trivial clauses: 0
[SAT presolve] [0s] clauses:2'194 literals:6'245 vars:483 one_side_vars:200 simple_definition:68 singleton_clauses:0
[SAT presolve] [0.000230309s] clauses:2'194 literals:6'245 vars:483 one_side_vars:200 simple_definition:68 singleton_clauses:0
[SAT presolve] [0.000306111s] clauses:2'194 literals:6'245 vars:483 one_side_vars:200 simple_definition:68 singleton_clauses:0
  1.65e-04s  0.00e+00d  [DetectDuplicateConstraintsWithDifferentEnforcements] 
  6.21e-03s  2.24e-03d  [Probe] #probed=1'334 #new_binary_clauses=1'426 
  5.39e-04s  5.65e-04d  [MaxClique] Merged 540 constraints with 1'218 literals into 539 constraints with 1'217 literals
  9.48e-04s  0.00e+00d  [DetectDominanceRelations] 
  3.31e-03s  0.00e+00d  [PresolveToFixPoint] #num_loops=1 #num_dual_strengthening=1 
  1.17e-03s  0.00e+00d  [ProcessAtMostOneAndLinear] 
  1.22e-04s  0.00e+00d  [DetectDuplicateConstraints] 
  9.77e-05s  0.00e+00d  [DetectDuplicateConstraintsWithDifferentEnforcements] 
  5.21e-04s  4.93e-05d  [DetectDominatedLinearConstraints] #relevant_constraints=837 #num_inclusions=272 
  1.43e-04s  0.00e+00d  [DetectDifferentVariables] 
  7.96e-04s  7.29e-05d  [ProcessSetPPC] #relevant_constraints=3'153 #num_inclusions=97 
  3.18e-04s  3.32e-05d  [TransformClausesToExactlyOne] #num_amos=539 #num_clauses=1'725 #num_checked=1'725 
  1.56e-04s  0.00e+00d  [DetectEncodedComplexDomains] 
  4.26e-05s  0.00e+00d  [FindAlmostIdenticalLinearConstraints] 
  8.79e-04s  1.03e-03d  [FindBigAtMostOneAndLinearOverlap] 
  1.25e-03s  8.52e-04d  [FindBigVerticalLinearOverlap] #blocks=2 #saved_nz=203 
  1.97e-04s  2.71e-04d  [FindBigHorizontalLinearOverlap] #linears=466 
  3.76e-04s  2.65e-05d  [MergeClauses] #num_collisions=76 #num_merges=76 #num_saved_literals=193 
  9.85e-04s  0.00e+00d  [DetectDominanceRelations] 
  3.32e-03s  0.00e+00d  [PresolveToFixPoint] #num_loops=2 #num_dual_strengthening=1 
  2.24e-05s  0.00e+00d  [MergeNoOverlap] 
  2.14e-05s  0.00e+00d  [MergeNoOverlap2D] 

Presolve summary:
  - 33 affine relations were detected.
  - rule 'TODO dual: only one blocking constraint?' was applied 936 times.
  - rule 'TODO linear inclusion: superset is equality' was applied 313 times.
  - rule 'affine: new relation' was applied 33 times.
  - rule 'at_most_one: transformed into max clique' was applied 3 times.
  - rule 'bool_or: implications' was applied 73 times.
  - rule 'bool_or: only one literal' was applied 12 times.
  - rule 'bool_or: removed enforcement literal' was applied 581 times.
  - rule 'deductions: 881 stored' was applied 1 time.
  - rule 'duplicate: merged rhs of linear constraint' was applied 4 times.
  - rule 'duplicate: removed constraint' was applied 5 times.
  - rule 'duplicate: removed enforced constraint' was applied 2 times.
  - rule 'enforcement: false literal' was applied 28 times.
  - rule 'enforcement: true literal' was applied 2 times.
  - rule 'exactly_one: removed literals' was applied 32 times.
  - rule 'exactly_one: satisfied' was applied 3 times.
  - rule 'exactly_one: singleton' was applied 2 times.
  - rule 'exactly_one: size two' was applied 30 times.
  - rule 'incompatible linear: add implication' was applied 144 times.
  - rule 'linear + amo: empty after processing' was applied 6 times.
  - rule 'linear + amo: extracted enforcement literal' was applied 56 times.
  - rule 'linear inclusion: redundant containing constraint' was applied 3 times.
  - rule 'linear inclusion: redundant included constraint' was applied 3 times.
  - rule 'linear inclusion: sparsify superset' was applied 1 time.
  - rule 'linear matrix: common vertical rectangle' was applied 13 times.
  - rule 'linear1: always true' was applied 1 time.
  - rule 'linear1: x in domain' was applied 26 times.
  - rule 'linear2: convert ax + by != cte to clauses' was applied 265 times.
  - rule 'linear2: convert implied ax + by == cte to clauses' was applied 120 times.
  - rule 'linear2: implied ax + by = cte has only one solution' was applied 9 times.
  - rule 'linear: always true' was applied 412 times.
  - rule 'linear: empty' was applied 1 time.
  - rule 'linear: extracted at most one (max)' was applied 1 time.
  - rule 'linear: fixed or dup variables' was applied 877 times.
  - rule 'linear: negative clause' was applied 1'301 times.
  - rule 'linear: negative reified and' was applied 78 times.
  - rule 'linear: never in domain' was applied 6 times.
  - rule 'linear: positive at most one' was applied 30 times.
  - rule 'linear: reduced variable domains' was applied 14 times.
  - rule 'linear: remapped using affine relations' was applied 19 times.
  - rule 'new_bool: integer encoding' was applied 9 times.
  - rule 'presolve: 66 unused variables removed.' was applied 1 time.
  - rule 'presolve: iteration' was applied 3 times.
  - rule 'probing: bool_or reduced to implication' was applied 26 times.
  - rule 'probing: simplified clauses' was applied 17 times.
  - rule 'setppc: bool_or in at_most_one' was applied 7 times.
  - rule 'setppc: removed dominated constraints' was applied 101 times.
  - rule 'variables: add encoding constraint' was applied 9 times.

Presolved satisfaction model '': (model_fingerprint: 0x42250a9f8d31bdbe)
#Variables: 523 (449 primary variables)
  - 510 Booleans in [0,1]
  - 12 in [0,2]
  - 1 in [0,9]
#kAtMostOne: 72 (#literals: 283)
#kBoolAnd: 276 (#enforced: 276) (#literals: 743)
#kBoolAndClauses: 76 (#enforced: 76 #multi: 76) (#literals: 345)
#kBoolOr: 1'573 (#literals: 4'769)
#kExactlyOne: 58 (#literals: 216)
#kLinear1: 18 (#enforced: 18)
#kLinear3: 6 (#enforced: 4)
#kLinearN: 832 (#enforced: 134) (#terms: 5'533)
[Symmetry] Graph for symmetry has 4'236 nodes and 13'350 arcs.
[Symmetry] Symmetry computation done. time: 0.000840717 dtime: 0.00132703

Preloading model.
#Model   0.10s var:523/523 constraints:2911/2911

Starting search at 0.10s with 4 workers.
3 full problem subsolvers: [default_lp, max_lp, no_lp]
1 first solution subsolver: [fj]
2 interleaved subsolvers: [feasibility_pump, rins/rens]
2 helper subsolvers: [neighborhood_helper, synchronization_agent]

#Model  17.15s var:522/523 constraints:2909/2911
#Model 187.42s var:521/523 constraints:2894/2911
#Model 295.74s var:519/523 constraints:2890/2911
#Model 321.70s var:518/523 constraints:2888/2911
#Model 452.88s var:517/523 constraints:2886/2911
#Model 602.53s var:516/523 constraints:2885/2911
#Model 666.25s var:514/523 constraints:2883/2911
#Model 735.93s var:513/523 constraints:2882/2911
#Model 998.92s var:512/523 constraints:2882/2911
#Model 1044.06s var:511/523 constraints:2865/2911
#Model 1336.59s var:508/523 constraints:2847/2911
#Model 1506.78s var:507/523 constraints:2829/2911
#Model 1515.95s var:506/523 constraints:2828/2911
#Model 1742.96s var:505/523 constraints:2826/2911
#Model 2207.00s var:504/523 constraints:2807/2911
#Model 2280.92s var:503/523 constraints:2793/2911
#Model 2385.85s var:502/523 constraints:2774/2911
#Model 2395.03s var:501/523 constraints:2758/2911
#Model 2396.22s var:486/523 constraints:2606/2911
#Done  2396.42s no_lp

Task timing                   n [     min,      max]      avg      dev     time         n [     min,      max]      avg      dev    dtime
        'default_lp':         1 [  39.94m,   39.94m]   39.94m   0.00ns   39.94m         2 [  2.34ms,   38.28m]   19.14m   19.14m   38.28m
  'feasibility_pump':     11879 [800.09us, 144.64ms]   1.60ms   1.35ms   18.96s     11878 [288.92us, 121.21ms] 301.07us   1.11ms    3.58s
                'fj':      8504 [104.26ms, 183.73ms] 139.70ms  11.35ms   19.80m      8504 [ 96.10ms, 100.10ms] 100.01ms  43.73us   14.18m
            'max_lp':         1 [  39.94m,   39.94m]   39.94m   0.00ns   39.94m         2 [110.53ms,   49.01m]   24.51m   24.51m   49.02m
             'no_lp':         1 [  39.94m,   39.94m]   39.94m   0.00ns   39.94m         2 [  2.22ms,    1.23h]   36.83m   36.83m    1.23h
         'rins/rens':     10872 [ 22.27ms, 244.40ms] 109.26ms  42.66ms   19.80m     10872 [152.14us, 100.36ms]  66.80ms  38.34ms   12.10m

Search stats     Bools   Conflicts    Branches  Restarts  BacktrackToRoot   Backtrack     BoolPropag  IntegerPropag
  'default_lp':    510     220'682   7'123'300     1'081        1'147'743   1'636'344     88'092'423     89'538'838
      'max_lp':    510     164'195   9'260'385       677        1'471'830   1'968'739    111'161'815    120'483'520
       'no_lp':    510  15'138'351  21'182'828    51'229          495'370  15'509'826  1'375'061'148    353'012'785

SAT formula      Fixed  Equiv  Total  VarLeft  BinaryClauses  PermanentClauses  TemporaryClauses
  'default_lp':     20      7    510      483          2'802            53'152             6'319
      'max_lp':     20      7    510      483          2'852            50'827             4'629
       'no_lp':    127      7    510      376          2'824           103'619             2'023

SAT stats        ClassicMinim   LitRemoved  LitRemovedBinary   LitLearned  LitForgotten   Subsumed
  'default_lp':       195'357    2'989'770         1'027'386    6'035'155     3'584'914     84'660
      'max_lp':       140'627    1'941'232           817'002    3'657'848     2'002'878     53'720
       'no_lp':    13'560'369  242'387'098        69'004'152  362'179'274   281'388'546  4'305'393

Vivification       Clauses  Decisions  LitTrue  Subsumed  LitRemoved  DecisionReused  Conflicts
  'default_lp':  1'182'776  6'624'155        1    18'667     212'467         343'461      2'349
      'max_lp':  1'493'887  8'751'862        1    21'862     249'669         424'947      2'654
       'no_lp':    387'945  3'122'984        5    21'702     302'522          91'879      1'876

Clause deletion    at_true  l_and_not(l)  to_binary  sub_conflict  sub_extra  sub_decisions  sub_eager  sub_vivify  sub_probing  sub_inpro  blocked  eliminated   forgotten    promoted   conflicts
    'default_lp':    9'548            19         25        83'517        575          3'371      1'143      18'667        7'513     19'690        0           0     102'359     430'909     220'682
        'max_lp':    9'159            11         29        53'068        432          1'194        652      21'862       10'230     23'221        0           0      73'681     331'884     164'195
         'no_lp':   93'713            62        154     4'228'867     33'975        226'256     76'526      21'702       13'170    127'993        0           0  10'217'590  34'349'073  15'138'351

Lp stats         Component  Iterations  AddedCuts  OPTIMAL  DUAL_F.  DUAL_U.
  'default_lp':          1  26'230'566     91'351  296'780        0  142'000
      'max_lp':          1  13'972'614     85'321   39'576  133'505   29'614

Lp dimension        Final dimension of first component
  'default_lp':    339 rows, 372 columns, 2811 entries
      'max_lp':  1203 rows, 523 columns, 10763 entries

Lp debug         CutPropag  CutEqPropag   Adjust  Overflow        Bad  BadScaling
  'default_lp':          0          143  141'996         0  2'321'260           0
      'max_lp':          0        1'225   29'596         0  2'455'246           0

Lp pool          Constraints  Updates  Simplif  Merged  Shortened  Split  Strengthened       Cuts/Call
  'default_lp':       10'159   22'681        0       0      1'694      0             0  91'351/189'135
      'max_lp':       12'582   32'897        0       3        343      0         2'218  85'321/178'854

Lp Cut            default_lp  max_lp
          CG_FF:       1'138     134
           CG_K:         657      13
          CG_KL:         501       3
           CG_R:       1'229      84
          CG_RB:          94       7
         CG_RBP:          22       -
         Clique:           -     256
             IB:         201      21
       MIR_1_FF:         673     897
        MIR_1_K:         226      18
       MIR_1_KL:         470      42
        MIR_1_R:         633     387
       MIR_1_RB:          14       2
      MIR_1_RBP:           3       -
      MIR_1_RLT:           -  10'621
       MIR_2_FF:         799     860
        MIR_2_K:         298     193
       MIR_2_KL:         344      72
        MIR_2_R:       1'397     761
       MIR_2_RB:         118      11
      MIR_2_RBP:          41       1
       MIR_3_FF:         368     207
        MIR_3_K:          94      23
       MIR_3_KL:          90      12
        MIR_3_R:       1'055     258
       MIR_3_RB:         114       9
      MIR_3_RBP:          70      10
       MIR_4_FF:         156      74
        MIR_4_K:          77      15
       MIR_4_KL:          39       8
        MIR_4_R:         966     219
       MIR_4_RB:         100       9
      MIR_4_RBP:          64       9
       MIR_5_FF:          67      30
        MIR_5_K:          28       8
       MIR_5_KL:          11       2
        MIR_5_R:         775     183
       MIR_5_RB:          77      14
      MIR_5_RBP:          53       5
       MIR_6_FF:          34      17
        MIR_6_K:          17       5
       MIR_6_KL:           2       -
        MIR_6_R:         572     166
       MIR_6_RB:          63      10
      MIR_6_RBP:          28       7
   ZERO_HALF_FF:         382   1'008
    ZERO_HALF_K:         143      75
   ZERO_HALF_KL:         123       5
    ZERO_HALF_R:      76'848  68'482
   ZERO_HALF_RB:          18       8
  ZERO_HALF_RBP:          59      60

LNS stats       Improv/Calls  Closed  Difficulty  TimeLimit
  'rins/rens':   10872/10872     50%    8.05e-01       0.10

LS stats                                    Batches  Restarts/Perturbs    LinMoves    GenMoves  CompoundMoves  Bactracks  WeightUpdates  ScoreComputed
                             'fj_restart':      483                125  14'997'096           0              0          0     12'230'927     40'993'199
                    'fj_restart_compound':      442                125           0   5'609'389        333'338  2'637'808         10'609     86'070'597
                'fj_restart_compound_obj':      383                110           0   4'846'805        279'442  2'283'398          9'459     74'570'264
            'fj_restart_compound_perturb':      884                124           0  11'388'957        355'375  5'516'582         28'960    172'089'251
        'fj_restart_compound_perturb_obj':      465                115           0   5'936'537        305'318  2'815'388         12'164     90'445'280
                       'fj_restart_decay':      518                116  18'901'323           0              0          0        740'476     17'216'645
              'fj_restart_decay_compound':      402                111           0   5'532'211        829'488  2'351'037          5'166     79'412'021
          'fj_restart_decay_compound_obj':      424                124           0   5'736'656        863'086  2'436'435          5'477     83'722'428
      'fj_restart_decay_compound_perturb':      634                111           0   9'007'360      1'346'776  3'830'012          7'965    125'452'405
  'fj_restart_decay_compound_perturb_obj':      623                129           0   8'743'142      1'323'632  3'709'349          7'980    123'319'954
                   'fj_restart_decay_obj':    1'120                115  40'811'361           0              0          0      1'603'541     37'342'702
               'fj_restart_decay_perturb':      410                 98  14'976'739           0              0          0        584'120     13'620'592
           'fj_restart_decay_perturb_obj':      481                132  17'527'781           0              0          0        687'615     16'001'368
                         'fj_restart_obj':      484                120  14'572'532           0              0          0     12'013'122     40'563'791
                     'fj_restart_perturb':      298                108   8'844'592           0              0          0      7'286'892     23'479'044
                 'fj_restart_perturb_obj':      453                101  13'586'289           0              0          0     11'565'773     36'873'270

Solution repositories    Added  Queried  Synchro
    'alternative_path':      0        0        0
      'best_solutions':      0        0        0
   'fj solution hints':  1'856        0    1'856
        'lp solutions':  1'690   10'872    1'685
                'pump':      0        0

Improving bounds shared    Num  Sym
            'default_lp':    6    0
                'max_lp':    8    0
                 'no_lp':   77    0

Clauses shared    #Exported  #Imported  #BinaryRead  #BinaryTotal
   'default_lp':      4'363     86'003          236           432
       'max_lp':      5'772     85'540          272           432
        'no_lp':     84'845     11'131          432           432

LRAT_status: NA
CpSolverResponse summary:
status: INFEASIBLE
objective: NA
best_bound: NA
integers: 372
booleans: 510
conflicts: 15138351
branches: 21182828
propagations: 1375061148
integer_propagations: 353012785
restarts: 51229
lp_iterations: 0
walltime: 2396.46
usertime: 2396.46
deterministic_time: 11238.1
gap_integral: 0

{
  "board_size": 22,
  "parity_proved": 0,
  "target": 34,
  "child_id": 1048,
  "child_count": 2640,
  "partition": "unknown_pair_x_diag_plus_twos_x_diag_minus_twos",
  "build_seconds": 0.07962918281555176,
  "workers": 4,
  "requested_seed": 2026073248,
  "effective_seed": 2026073248,
  "main_diagonal_pair": [
    2,
    16
  ],
  "pair_index": 53,
  "diag_plus_twos": 17,
  "diag_minus_twos": 16,
  "pair_excess": 0,
  "residual_certificate_slack": 112,
  "analytic_minimum_line_defect": 0,
  "analytic_defect_details": {
    "row_costs": {
      "12": 6,
      "13": 3,
      "14": 0,
      "15": 0,
      "16": 0,
      "17": 0
    },
    "column_costs": {
      "12": 6,
      "13": 3,
      "14": 0,
      "15": 0,
      "16": 0,
      "17": 0
    },
    "plus_cost": 0,
    "minus_cost": 0,
    "row_column_minimum": 0
  },
  "maximal_line_constraints": 2455,
  "analytic_infeasible": false,
  "allowed_points": 242,
  "status": "INFEASIBLE",
  "proof_method": "cp_sat_all_lines_with_certificate_profile_cuts",
  "elapsed_seconds": 2396.456757545471,
  "branches": 21182828,
  "conflicts": 15138351
}
